Minimize
  0.2 y_0 + 0.1 y_1 + 0.1428571428571428 y_2 + 0.2 y_3
   + 0.1111111111111111 y_4 + 0.1 y_5 + 0.0909090909090909 y_6 + 0.125 y_7
   + 0.125 y_8 + 0.1666666666666667 y_9 + 0.1111111111111111 y_10
   + 0.125 y_11 + 0.1666666666666667 y_12 + 0.25 y_13
   + 0.3333333333333333 y_14 + 0.0909090909090909 y_15
   + 0.0833333333333333 y_16 + 0.3333333333333333 y_17
   + 0.0909090909090909 y_18 + 0.3333333333333333 y_19
   + 0.1666666666666667 y_20 + 0.125 y_21 + 0.1111111111111111 y_22
   + 0.125 y_23 + 0.125 y_24 + 0.1111111111111111 y_25
   + 0.0909090909090909 y_26 + 0.1111111111111111 y_27 + 0.1 y_28
   + 0.1 y_29 + 0.0909090909090909 y_30 + 0.25 y_31
   + 0.1111111111111111 y_32 + 0.2 y_33 + 0.1111111111111111 y_34
   + 0.1 y_35 + 0.5 y_36 + 0.125 y_37 + 0.2 y_38 + 0.0769230769230769 y_39
   + 0.125 y_40 + 0.0909090909090909 y_41 + 0.125 y_42
   + 0.1666666666666667 y_43 + 0.1666666666666667 y_44 + y_45
   + 0.0909090909090909 y_46 + 0.1111111111111111 y_47
   + 0.1111111111111111 y_48 + 0.25 y_49 + 0.1111111111111111 y_50
   + 0.25 y_51 + 0.1111111111111111 y_52 + 0.0909090909090909 y_53
   + 0.3333333333333333 y_54 + 0.1111111111111111 y_55
   + 0.1428571428571428 y_56 + 0.2 y_57 + 0.0833333333333333 y_58
   + 0.0833333333333333 y_59 + 0.0909090909090909 y_60
   + 0.1111111111111111 y_61 + 0.1 y_62 + 0.1111111111111111 y_63
   + 0.1111111111111111 y_64 + 0.25 y_65 + 0.0909090909090909 y_66 + y_67
   + 0.0909090909090909 y_68 + 0.1 y_69 + 0.3333333333333333 y_70
   + 0.1666666666666667 y_71 + 0.1 y_72 + 0.1428571428571428 y_73
   + 0.0833333333333333 y_74 + 0.0769230769230769 y_75
   + 0.0769230769230769 y_76 + 0.0769230769230769 y_77 + 0.125 y_78
   + 0.1111111111111111 y_79 + 0.125 y_80 + 0.0909090909090909 y_81
   + 0.0769230769230769 y_82 + 0.125 y_83 + 0.3333333333333333 y_84
   + 0.1666666666666667 y_85 + 0.1428571428571428 y_86
   + 0.0666666666666667 y_87 + 0.1111111111111111 y_88 + 0.1 y_89
   + 0.1666666666666667 y_90 + 0.1666666666666667 y_91
   + 0.1666666666666667 y_92 + 0.5 y_93 + 0.1428571428571428 y_94
   + 0.2 y_95 + 0.1 y_96 + 0.1 y_97 + 0.1666666666666667 y_98
   + 0.0714285714285714 y_99 + 0.1428571428571428 y_100
   + 0.1111111111111111 y_101 + 0.0833333333333333 y_102
   + 0.1666666666666667 y_103 + 0.0909090909090909 y_104
   + 0.0714285714285714 y_105 + 0.1 y_106 + 0.0769230769230769 y_107
   + 0.3333333333333333 y_108 + 0.125 y_109 + 0.1111111111111111 y_110
   + 0.1 y_111 + 0.0833333333333333 y_112 + 0.2 y_113
   + 0.1428571428571428 y_114 + 0.125 y_115 + 0.1428571428571428 y_116
   + 0.0909090909090909 y_117 + 0.1111111111111111 y_118 + 0.1 y_119
   + 0.0833333333333333 y_120 + 0.1666666666666667 y_121
   + 0.1111111111111111 y_122 + 0.25 y_123 + 0.1 y_124
   + 0.0909090909090909 y_125 + 0.1 y_126 + 0.1666666666666667 y_127
   + 0.1 y_128 + 0.125 y_129 + 0.1111111111111111 y_130
   + 0.3333333333333333 y_131 + 0.0714285714285714 y_132 + 0.1 y_133
   + 0.1428571428571428 y_134 + 0.2 y_135 + 0.0714285714285714 y_136
   + 0.25 y_137 + 0.1111111111111111 y_138 + 0.0833333333333333 y_139
   + 0.1428571428571428 y_140 + 0.0909090909090909 y_141 + 0.1 y_142
   + 0.1428571428571428 y_143 + 0.1 y_144 + 0.1428571428571428 y_145
   + 0.0833333333333333 y_146 + 0.1 y_147 + 0.25 y_148
   + 0.1111111111111111 y_149 + 0.3333333333333333 y_150
   + 0.0909090909090909 y_151 + 0.1428571428571428 y_152
   + 0.1666666666666667 y_153 + 0.1 y_154 + 0.0769230769230769 y_155
   + 0.1 y_156 + 0.0909090909090909 y_157 + 0.125 y_158
   + 0.1666666666666667 y_159 + 0.125 y_160 + 0.1111111111111111 y_161
   + 0.0666666666666667 y_162 + 0.3333333333333333 y_163
   + 0.1111111111111111 y_164 + 0.1 y_165 + 0.0666666666666667 y_166
   + 0.2 y_167 + 0.0909090909090909 y_168 + 0.25 y_169 + 0.2 y_170
   + 0.2 y_171 + 0.1 y_172 + 0.0833333333333333 y_173
   + 0.1111111111111111 y_174 + 0.25 y_175 + 0.125 y_176 + 0.1 y_177
   + 0.2 y_178 + 0.1428571428571428 y_179 + 0.5 y_180
   + 0.1428571428571428 y_181 + 0.125 y_182 + 0.3333333333333333 y_183
   + 0.0833333333333333 y_184 + 0.1111111111111111 y_185 + 0.5 y_186
   + 0.1428571428571428 y_187 + 0.125 y_188 + 0.125 y_189
   + 0.0909090909090909 y_190 + 0.0833333333333333 y_191
   + 0.1666666666666667 y_192 + 0.125 y_193 + 0.1 y_194
   + 0.1666666666666667 y_195 + 0.1 y_196 + 0.0769230769230769 y_197
   + 0.2 y_198 + 0.1428571428571428 y_199 - 30.77562992562992 Constant
Subject To
 c_0: y_65 = 1
 c_1_0: y_0 + y_31 + y_49 + y_84 + y_103 + y_108 + y_159 + y_163 + y_198
   >= 1
 c_1_1: y_1 + y_48 + y_61 >= 1
 c_1_2: y_2 + y_56 + y_94 + y_121 + y_135 + y_182 >= 1
 c_1_3: y_3 + y_17 + y_57 + y_65 + y_70 + y_71 + y_95 + y_137 + y_167
   + y_171 >= 1
 c_1_4: y_4 + y_28 + y_64 + y_104 + y_126 + y_185 + y_189 + y_199 >= 1
 c_1_5: y_5 + y_23 + y_79 + y_119 + y_193 >= 1
 c_1_6: y_6 + y_46 + y_55 + y_96 + y_112 + y_142 + y_177 >= 1
 c_1_7: y_7 + y_12 + y_47 + y_64 + y_83 + y_130 + y_134 + y_159 + y_185
   + y_195 >= 1
 c_1_8: y_8 + y_21 + y_32 + y_63 + y_79 + y_153 + y_156 + y_161 >= 1
 c_1_9: y_9 + y_37 + y_42 + y_57 + y_65 + y_71 + y_167 + y_171 >= 1
 c_1_10: y_10 + y_37 + y_55 + y_96 + y_97 + y_141 >= 1
 c_1_11: y_11 + y_20 + y_24 + y_43 + y_44 + y_48 + y_61 + y_145 >= 1
 c_1_12: y_7 + y_12 + y_83 + y_103 + y_134 + y_159 + y_195 + y_198 >= 1
 c_1_13: y_13 + y_54 + y_150 + y_169 + y_175 + y_183 + y_186 >= 1
 c_1_14: y_14 + y_19 + y_54 + y_148 + y_150 + y_169 + y_170 >= 1
 c_1_15: y_15 + y_88 + y_122 + y_124 >= 1
 c_1_16: y_16 + y_18 + y_26 + y_82 + y_125 >= 1
 c_1_17: y_3 + y_17 + y_57 + y_70 + y_95 + y_137 + y_183 + y_186 >= 1
 c_1_18: y_16 + y_18 + y_26 + y_27 + y_30 + y_125 + y_138 >= 1
 c_1_19: y_14 + y_19 + y_54 + y_67 + y_150 + y_169 + y_170 >= 1
 c_1_20: y_11 + y_20 + y_44 + y_145 + y_170 >= 1
 c_1_21: y_8 + y_21 + y_32 + y_63 + y_79 + y_114 + y_153 + y_161 >= 1
 c_1_22: y_22 + y_52 + y_164 >= 1
 c_1_23: y_5 + y_23 + y_79 + y_114 + y_119 + y_152 + y_176 + y_187 + y_193
   >= 1
 c_1_24: y_11 + y_24 + y_43 + y_61 + y_110 + y_118 + y_145 + y_179 >= 1
 c_1_25: y_25 + y_28 + y_29 + y_69 + y_72 + y_116 + y_119 + y_126 + y_189
   + y_193 >= 1
 c_1_26: y_16 + y_18 + y_26 + y_27 + y_30 + y_81 + y_111 >= 1
 c_1_27: y_18 + y_26 + y_27 + y_30 + y_111 + y_138 + y_160 + y_174 >= 1
 c_1_28: y_4 + y_25 + y_28 + y_29 + y_72 + y_104 + y_126 + y_189 >= 1
 c_1_29: y_25 + y_28 + y_29 + y_69 + y_72 + y_119 + y_126 >= 1
 c_1_30: y_18 + y_26 + y_27 + y_30 + y_81 + y_89 + y_111 >= 1
 c_1_31: y_0 + y_31 + y_36 + y_45 + y_49 + y_51 + y_84 + y_93 + y_108
   + y_163 + y_178 + y_198 >= 1
 c_1_32: y_8 + y_21 + y_32 + y_63 + y_147 + y_156 + y_161 + y_165 >= 1
 c_1_33: y_33 + y_85 + y_94 + y_121 + y_135 + y_175 + y_183 >= 1
 c_1_34: y_34 + y_41 + y_42 + y_80 + y_149 + y_177 + y_188 + y_194 >= 1
 c_1_35: y_35 + y_122 + y_124 + y_133 >= 1
 c_1_36: y_31 + y_36 + y_45 + y_67 + y_84 + y_93 + y_108 + y_131 + y_163
   + y_180 >= 1
 c_1_37: y_9 + y_10 + y_37 + y_42 + y_55 >= 1
 c_1_38: y_38 + y_49 + y_51 + y_91 + y_100 + y_113 + y_123 + y_178 >= 1
 c_1_39: y_39 + y_46 + y_107 + y_112 + y_132 + y_155 + y_197 >= 1
 c_1_40: y_40 + y_56 + y_73 + y_78 + y_88 + y_109 + y_122 + y_129 + y_182
   + y_188 >= 1
 c_1_41: y_34 + y_41 + y_46 + y_149 + y_173 + y_177 + y_184 + y_194 >= 1
 c_1_42: y_9 + y_34 + y_37 + y_42 + y_55 + y_71 + y_80 + y_149 + y_177
   + y_188 >= 1
 c_1_43: y_11 + y_24 + y_43 + y_44 + y_86 + y_145 + y_170 + y_179 + y_192
   >= 1
 c_1_44: y_11 + y_20 + y_43 + y_44 + y_145 + y_170 + y_179 >= 1
 c_1_45: y_31 + y_36 + y_45 + y_67 + y_84 + y_93 + y_108 + y_131 + y_150
   + y_163 + y_180 + y_186 >= 1
 c_1_46: y_6 + y_39 + y_41 + y_46 + y_107 + y_142 + y_149 + y_173 + y_177
   + y_184 + y_194 >= 1
 c_1_47: y_7 + y_47 + y_64 + y_130 + y_157 + y_185 >= 1
 c_1_48: y_1 + y_11 + y_48 + y_61 + y_165 >= 1
 c_1_49: y_0 + y_31 + y_38 + y_49 + y_51 + y_84 + y_93 + y_108 + y_123
   + y_131 + y_163 + y_178 + y_198 >= 1
 c_1_50: y_50 + y_52 + y_101 + y_106 + y_115 + y_158 + y_164 + y_172
   + y_196 >= 1
 c_1_51: y_31 + y_38 + y_49 + y_51 + y_84 + y_93 + y_113 + y_123 + y_131
   + y_163 + y_178 >= 1
 c_1_52: y_22 + y_50 + y_52 + y_106 + y_115 + y_158 + y_164 + y_172 + y_196
   >= 1
 c_1_53: y_53 + y_133 >= 1
 c_1_54: y_13 + y_14 + y_19 + y_54 + y_150 + y_169 + y_175 + y_183 + y_186
   >= 1
 c_1_55: y_6 + y_10 + y_37 + y_42 + y_55 + y_80 + y_96 + y_142 >= 1
 c_1_56: y_2 + y_40 + y_56 + y_73 + y_78 + y_88 + y_109 + y_121 + y_129
   + y_182 + y_188 >= 1
 c_1_57: y_3 + y_9 + y_17 + y_57 + y_65 + y_70 + y_71 + y_95 + y_137
   + y_167 + y_171 >= 1
 c_1_58: y_58 + y_102 + y_120 >= 1
 c_1_59: y_59 + y_68 + y_76 + y_77 + y_157 + y_190 >= 1
 c_1_60: y_60 + y_96 + y_97 + y_139 + y_141 + y_146 >= 1
 c_1_61: y_1 + y_11 + y_24 + y_48 + y_61 + y_145 >= 1
 c_1_62: y_62 + y_89 + y_174 >= 1
 c_1_63: y_8 + y_21 + y_32 + y_63 + y_79 + y_147 + y_156 >= 1
 c_1_64: y_4 + y_7 + y_47 + y_64 + y_130 + y_185 >= 1
 c_1_65: y_3 + y_9 + y_57 + y_65 + y_71 + y_123 + y_131 + y_137 + y_167
   + y_171 >= 1
 c_1_66: y_66 + y_74 + y_120 + y_165 >= 1
 c_1_67: y_19 + y_36 + y_45 + y_67 + y_93 + y_108 + y_131 + y_150 + y_180
   + y_186 >= 1
 c_1_68: y_59 + y_68 + y_117 + y_128 + y_144 + y_157 + y_168 + y_190 >= 1
 c_1_69: y_25 + y_29 + y_69 + y_72 + y_119 + y_193 >= 1
 c_1_70: y_3 + y_17 + y_57 + y_70 + y_95 + y_137 + y_183 + y_186 >= 1
 c_1_71: y_3 + y_9 + y_42 + y_57 + y_65 + y_71 + y_95 + y_137 + y_167
   + y_171 >= 1
 c_1_72: y_25 + y_28 + y_29 + y_69 + y_72 + y_126 >= 1
 c_1_73: y_40 + y_56 + y_73 + y_78 + y_88 + y_95 + y_109 + y_129 + y_182
   + y_188 >= 1
 c_1_74: y_66 + y_74 >= 1
 c_1_75: y_75 >= 1
 c_1_76: y_59 + y_76 + y_77 >= 1
 c_1_77: y_59 + y_76 + y_77 >= 1
 c_1_78: y_40 + y_56 + y_73 + y_78 + y_88 + y_109 + y_122 + y_129 + y_182
   + y_188 >= 1
 c_1_79: y_5 + y_8 + y_21 + y_23 + y_63 + y_79 + y_114 + y_176 >= 1
 c_1_80: y_34 + y_42 + y_55 + y_80 + y_149 + y_177 + y_188 >= 1
 c_1_81: y_26 + y_30 + y_81 + y_89 + y_111 + y_191 >= 1
 c_1_82: y_16 + y_82 + y_162 >= 1
 c_1_83: y_7 + y_12 + y_83 + y_100 + y_101 + y_128 + y_130 + y_134 + y_144
   + y_195 >= 1
 c_1_84: y_0 + y_31 + y_36 + y_45 + y_49 + y_51 + y_84 + y_93 + y_108
   + y_131 + y_163 + y_180 >= 1
 c_1_85: y_33 + y_85 + y_94 + y_140 >= 1
 c_1_86: y_43 + y_86 + y_110 + y_118 + y_179 + y_192 >= 1
 c_1_87: y_87 + y_132 + y_166 >= 1
 c_1_88: y_15 + y_40 + y_56 + y_73 + y_78 + y_88 + y_109 + y_122 + y_124
   + y_129 + y_182 + y_188 >= 1
 c_1_89: y_30 + y_62 + y_81 + y_89 + y_111 + y_174 + y_191 >= 1
 c_1_90: y_90 + y_92 + y_98 + y_114 + y_127 + y_148 + y_152 + y_153 + y_176
   + y_187 >= 1
 c_1_91: y_38 + y_91 + y_100 + y_113 + y_115 + y_123 + y_178 >= 1
 c_1_92: y_90 + y_92 + y_98 + y_114 + y_127 + y_148 + y_152 + y_153 + y_187
   >= 1
 c_1_93: y_31 + y_36 + y_45 + y_49 + y_51 + y_67 + y_84 + y_93 + y_108
   + y_131 + y_163 + y_180 >= 1
 c_1_94: y_2 + y_33 + y_85 + y_94 + y_121 + y_135 + y_140 + y_160 >= 1
 c_1_95: y_3 + y_17 + y_57 + y_70 + y_71 + y_73 + y_95 + y_137 >= 1
 c_1_96: y_6 + y_10 + y_55 + y_60 + y_96 + y_97 + y_141 + y_142 >= 1
 c_1_97: y_10 + y_60 + y_96 + y_97 + y_141 >= 1
 c_1_98: y_90 + y_92 + y_98 + y_114 + y_116 + y_127 + y_152 + y_181 + y_187
   >= 1
 c_1_99: y_99 + y_105 + y_136 >= 1
 c_1_100: y_38 + y_83 + y_91 + y_100 + y_101 + y_115 + y_158 + y_195 >= 1
 c_1_101: y_50 + y_83 + y_100 + y_101 + y_106 + y_115 + y_128 + y_144
   + y_158 + y_172 >= 1
 c_1_102: y_58 + y_102 + y_120 + y_147 + y_156 >= 1
 c_1_103: y_0 + y_12 + y_103 + y_159 + y_195 + y_198 >= 1
 c_1_104: y_4 + y_28 + y_104 + y_126 >= 1
 c_1_105: y_99 + y_105 + y_136 >= 1
 c_1_106: y_50 + y_52 + y_101 + y_106 + y_115 + y_158 + y_164 + y_172
   + y_196 >= 1
 c_1_107: y_39 + y_46 + y_107 + y_173 + y_184 >= 1
 c_1_108: y_0 + y_31 + y_36 + y_45 + y_49 + y_67 + y_84 + y_93 + y_108
   + y_163 + y_180 >= 1
 c_1_109: y_40 + y_56 + y_73 + y_78 + y_88 + y_109 + y_122 + y_124 + y_129
   + y_182 + y_188 >= 1
 c_1_110: y_24 + y_86 + y_110 + y_118 + y_154 + y_179 >= 1
 c_1_111: y_26 + y_27 + y_30 + y_81 + y_89 + y_111 + y_174 >= 1
 c_1_112: y_6 + y_39 + y_112 + y_142 + y_146 + y_155 + y_197 >= 1
 c_1_113: y_38 + y_51 + y_91 + y_113 + y_123 + y_143 + y_178 >= 1
 c_1_114: y_21 + y_23 + y_79 + y_90 + y_92 + y_98 + y_114 + y_127 + y_152
   + y_153 + y_176 + y_187 + y_193 >= 1
 c_1_115: y_50 + y_52 + y_91 + y_100 + y_101 + y_106 + y_115 + y_158
   + y_164 + y_196 >= 1
 c_1_116: y_25 + y_98 + y_116 + y_152 + y_176 + y_181 + y_187 + y_189
   + y_193 + y_199 >= 1
 c_1_117: y_68 + y_117 + y_128 + y_144 + y_168 + y_172 >= 1
 c_1_118: y_24 + y_86 + y_110 + y_118 + y_151 + y_154 + y_179 >= 1
 c_1_119: y_5 + y_23 + y_25 + y_29 + y_69 + y_119 + y_193 >= 1
 c_1_120: y_58 + y_66 + y_102 + y_120 + y_136 + y_147 + y_156 >= 1
 c_1_121: y_2 + y_33 + y_56 + y_94 + y_121 + y_135 >= 1
 c_1_122: y_15 + y_35 + y_40 + y_78 + y_88 + y_109 + y_122 + y_124 + y_129
   + y_182 >= 1
 c_1_123: y_38 + y_49 + y_51 + y_65 + y_91 + y_113 + y_123 + y_131 + y_178
   >= 1
 c_1_124: y_15 + y_35 + y_88 + y_109 + y_122 + y_124 >= 1
 c_1_125: y_16 + y_18 + y_125 + y_138 >= 1
 c_1_126: y_4 + y_25 + y_28 + y_29 + y_72 + y_104 + y_126 + y_189 >= 1
 c_1_127: y_90 + y_92 + y_98 + y_114 + y_127 + y_148 + y_152 + y_153
   + y_187 >= 1
 c_1_128: y_68 + y_83 + y_101 + y_117 + y_128 + y_130 + y_144 + y_168
   + y_172 >= 1
 c_1_129: y_40 + y_56 + y_73 + y_78 + y_88 + y_109 + y_122 + y_129 + y_182
   + y_188 >= 1
 c_1_130: y_7 + y_47 + y_64 + y_83 + y_128 + y_130 + y_144 + y_157 + y_190
   >= 1
 c_1_131: y_36 + y_45 + y_49 + y_51 + y_65 + y_67 + y_84 + y_93 + y_123
   + y_131 + y_137 + y_178 + y_180 >= 1
 c_1_132: y_39 + y_87 + y_132 + y_166 + y_197 >= 1
 c_1_133: y_35 + y_53 + y_133 >= 1
 c_1_134: y_7 + y_12 + y_83 + y_134 + y_159 + y_195 + y_198 >= 1
 c_1_135: y_2 + y_33 + y_94 + y_121 + y_135 + y_183 >= 1
 c_1_136: y_99 + y_105 + y_120 + y_136 >= 1
 c_1_137: y_3 + y_17 + y_57 + y_65 + y_70 + y_71 + y_95 + y_131 + y_137
   + y_167 + y_171 >= 1
 c_1_138: y_18 + y_27 + y_125 + y_138 + y_140 + y_160 >= 1
 c_1_139: y_60 + y_139 + y_141 + y_146 >= 1
 c_1_140: y_85 + y_94 + y_138 + y_140 + y_160 >= 1
 c_1_141: y_10 + y_60 + y_96 + y_97 + y_139 + y_141 + y_146 >= 1
 c_1_142: y_6 + y_46 + y_55 + y_96 + y_112 + y_142 + y_149 + y_177 >= 1
 c_1_143: y_113 + y_143 >= 1
 c_1_144: y_68 + y_83 + y_101 + y_117 + y_128 + y_130 + y_144 + y_168
   + y_172 >= 1
 c_1_145: y_11 + y_20 + y_24 + y_43 + y_44 + y_61 + y_145 >= 1
 c_1_146: y_60 + y_112 + y_139 + y_141 + y_146 + y_155 >= 1
 c_1_147: y_32 + y_63 + y_102 + y_120 + y_147 + y_156 >= 1
 c_1_148: y_14 + y_90 + y_92 + y_127 + y_148 + y_153 >= 1
 c_1_149: y_34 + y_41 + y_42 + y_46 + y_80 + y_142 + y_149 + y_177 + y_188
   + y_194 >= 1
 c_1_150: y_13 + y_14 + y_19 + y_45 + y_54 + y_67 + y_150 + y_169 + y_170
   + y_175 + y_186 >= 1
 c_1_151: y_118 + y_151 + y_154 >= 1
 c_1_152: y_23 + y_90 + y_92 + y_98 + y_114 + y_116 + y_127 + y_152 + y_176
   + y_181 + y_187 + y_193 >= 1
 c_1_153: y_8 + y_21 + y_90 + y_92 + y_114 + y_127 + y_148 + y_153 >= 1
 c_1_154: y_110 + y_118 + y_151 + y_154 >= 1
 c_1_155: y_39 + y_112 + y_146 + y_155 + y_197 >= 1
 c_1_156: y_8 + y_32 + y_63 + y_102 + y_120 + y_147 + y_156 >= 1
 c_1_157: y_47 + y_59 + y_68 + y_130 + y_157 + y_190 >= 1
 c_1_158: y_50 + y_52 + y_100 + y_101 + y_106 + y_115 + y_158 + y_164
   + y_172 + y_196 >= 1
 c_1_159: y_0 + y_7 + y_12 + y_103 + y_134 + y_159 + y_195 + y_198 >= 1
 c_1_160: y_27 + y_94 + y_138 + y_140 + y_160 >= 1
 c_1_161: y_8 + y_21 + y_32 + y_161 + y_165 >= 1
 c_1_162: y_82 + y_162 >= 1
 c_1_163: y_0 + y_31 + y_36 + y_45 + y_49 + y_51 + y_84 + y_93 + y_108
   + y_163 + y_180 + y_198 >= 1
 c_1_164: y_22 + y_50 + y_52 + y_106 + y_115 + y_158 + y_164 + y_172
   + y_196 >= 1
 c_1_165: y_32 + y_48 + y_66 + y_161 + y_165 >= 1
 c_1_166: y_87 + y_132 + y_166 + y_197 >= 1
 c_1_167: y_3 + y_9 + y_57 + y_65 + y_71 + y_137 + y_167 + y_171 >= 1
 c_1_168: y_68 + y_117 + y_128 + y_144 + y_168 + y_172 >= 1
 c_1_169: y_13 + y_14 + y_19 + y_54 + y_150 + y_169 + y_170 + y_175 >= 1
 c_1_170: y_14 + y_19 + y_20 + y_43 + y_44 + y_150 + y_169 + y_170 >= 1
 c_1_171: y_3 + y_9 + y_57 + y_65 + y_71 + y_137 + y_167 + y_171 >= 1
 c_1_172: y_50 + y_52 + y_101 + y_106 + y_117 + y_128 + y_144 + y_158
   + y_164 + y_168 + y_172 + y_196 >= 1
 c_1_173: y_41 + y_46 + y_107 + y_173 + y_184 + y_194 >= 1
 c_1_174: y_27 + y_62 + y_89 + y_111 + y_174 >= 1
 c_1_175: y_13 + y_33 + y_54 + y_150 + y_169 + y_175 + y_183 + y_186 >= 1
 c_1_176: y_23 + y_79 + y_90 + y_114 + y_116 + y_152 + y_176 + y_187
   + y_193 >= 1
 c_1_177: y_6 + y_34 + y_41 + y_42 + y_46 + y_80 + y_142 + y_149 + y_177
   + y_194 >= 1
 c_1_178: y_31 + y_38 + y_49 + y_51 + y_91 + y_113 + y_123 + y_131 + y_178
   >= 1
 c_1_179: y_24 + y_43 + y_44 + y_86 + y_110 + y_118 + y_179 + y_192 >= 1
 c_1_180: y_36 + y_45 + y_67 + y_84 + y_93 + y_108 + y_131 + y_163 + y_180
   + y_186 >= 1
 c_1_181: y_98 + y_116 + y_152 + y_181 + y_187 + y_189 + y_199 >= 1
 c_1_182: y_2 + y_40 + y_56 + y_73 + y_78 + y_88 + y_109 + y_122 + y_129
   + y_182 + y_188 >= 1
 c_1_183: y_13 + y_17 + y_33 + y_54 + y_70 + y_135 + y_175 + y_183 + y_186
   >= 1
 c_1_184: y_41 + y_46 + y_107 + y_173 + y_184 + y_194 >= 1
 c_1_185: y_4 + y_7 + y_47 + y_64 + y_185 >= 1
 c_1_186: y_13 + y_17 + y_45 + y_54 + y_67 + y_70 + y_150 + y_175 + y_180
   + y_183 + y_186 >= 1
 c_1_187: y_23 + y_90 + y_92 + y_98 + y_114 + y_116 + y_127 + y_152 + y_176
   + y_181 + y_187 + y_189 + y_193 + y_199 >= 1
 c_1_188: y_34 + y_40 + y_42 + y_56 + y_73 + y_78 + y_80 + y_88 + y_109
   + y_129 + y_149 + y_182 + y_188 >= 1
 c_1_189: y_4 + y_25 + y_28 + y_116 + y_126 + y_181 + y_187 + y_189 + y_199
   >= 1
 c_1_190: y_59 + y_68 + y_130 + y_157 + y_190 >= 1
 c_1_191: y_81 + y_89 + y_191 >= 1
 c_1_192: y_43 + y_86 + y_179 + y_192 >= 1
 c_1_193: y_5 + y_23 + y_25 + y_69 + y_114 + y_116 + y_119 + y_152 + y_176
   + y_187 + y_193 >= 1
 c_1_194: y_34 + y_41 + y_46 + y_149 + y_173 + y_177 + y_184 + y_194 >= 1
 c_1_195: y_7 + y_12 + y_83 + y_100 + y_103 + y_134 + y_159 + y_195 + y_198
   >= 1
 c_1_196: y_50 + y_52 + y_106 + y_115 + y_158 + y_164 + y_172 + y_196 >= 1
 c_1_197: y_39 + y_112 + y_132 + y_155 + y_166 + y_197 >= 1
 c_1_198: y_0 + y_12 + y_31 + y_49 + y_103 + y_134 + y_159 + y_163 + y_195
   + y_198 >= 1
 c_1_199: y_4 + y_116 + y_181 + y_187 + y_189 + y_199 >= 1
Bounds
 Constant = 1
Binaries
 y_0 y_1 y_2 y_3 y_4 y_5 y_6 y_7 y_8 y_9 y_10 y_11 y_12 y_13 y_14 y_15 y_16
 y_17 y_18 y_19 y_20 y_21 y_22 y_23 y_24 y_25 y_26 y_27 y_28 y_29 y_30 y_31
 y_32 y_33 y_34 y_35 y_36 y_37 y_38 y_39 y_40 y_41 y_42 y_43 y_44 y_45 y_46
 y_47 y_48 y_49 y_50 y_51 y_52 y_53 y_54 y_55 y_56 y_57 y_58 y_59 y_60 y_61
 y_62 y_63 y_64 y_65 y_66 y_67 y_68 y_69 y_70 y_71 y_72 y_73 y_74 y_75 y_76
 y_77 y_78 y_79 y_80 y_81 y_82 y_83 y_84 y_85 y_86 y_87 y_88 y_89 y_90 y_91
 y_92 y_93 y_94 y_95 y_96 y_97 y_98 y_99 y_100 y_101 y_102 y_103 y_104
 y_105 y_106 y_107 y_108 y_109 y_110 y_111 y_112 y_113 y_114 y_115 y_116
 y_117 y_118 y_119 y_120 y_121 y_122 y_123 y_124 y_125 y_126 y_127 y_128
 y_129 y_130 y_131 y_132 y_133 y_134 y_135 y_136 y_137 y_138 y_139 y_140
 y_141 y_142 y_143 y_144 y_145 y_146 y_147 y_148 y_149 y_150 y_151 y_152
 y_153 y_154 y_155 y_156 y_157 y_158 y_159 y_160 y_161 y_162 y_163 y_164
 y_165 y_166 y_167 y_168 y_169 y_170 y_171 y_172 y_173 y_174 y_175 y_176
 y_177 y_178 y_179 y_180 y_181 y_182 y_183 y_184 y_185 y_186 y_187 y_188
 y_189 y_190 y_191 y_192 y_193 y_194 y_195 y_196 y_197 y_198 y_199
End
